Minimize
	value: tt

Subject to
tt + 2000 s_1_1 > 0
tt - t_1_1 - 2000.000000 s_1_1 > -1994.399100
tt + 2000 s_2_1 > 0
tt - t_2_1 - 2000.000000 s_2_1 > -1989.570000
tt + 2000 s_1_2 > 0
tt - t_1_2 - 2000.000000 s_1_2 > -1989.147800
tt + 2000 s_2_2 > 0
tt - t_2_2 - 2000.000000 s_2_2 > -1981.527700
tt + 2000 s_1_3 > 0
tt - t_1_3 - 2000.000000 s_1_3 > -1996.226000
tt + 2000 s_2_3 > 0
tt - t_2_3 - 2000.000000 s_2_3 > -1993.732400
tt + 2000 s_1_4 > 0
tt - t_1_4 - 2000.000000 s_1_4 > -1994.095200
tt + 2000 s_2_4 > 0
tt - t_2_4 - 2000.000000 s_2_4 > -1988.712300
tt + 2000 s_1_5 > 0
tt - t_1_5 - 2120.859570 s_1_5 + 120.859570 s_1_1 > -1998.927400
tt + 2000 s_2_5 > 0
tt - t_2_5 - 2241.719140 s_2_5 + 241.719140 s_2_1 > -1997.811900
s_1_1 + s_2_1  = 1
s_1_2 + s_2_2  = 1
s_1_3 + s_2_3  = 1
s_1_4 + s_2_4  = 1
s_1_5 + s_2_5  = 1
t_1_1 - t_1_2 + 2000.000000 u_1_1_2 > 10.852200
t_1_2 - t_1_1 - 2000.000000 u_1_1_2 > -1994.399100
t_2_1 - t_2_2 + 2000.000000 u_2_1_2 > 18.472300
t_2_2 - t_2_1 - 2000.000000 u_2_1_2 > -1989.570000
t_1_1 - t_1_3 + 2000.000000 u_1_1_3 > 3.774000
t_1_3 - t_1_1 - 2000.000000 u_1_1_3 > -1994.399100
t_2_1 - t_2_3 + 2000.000000 u_2_1_3 > 6.267600
t_2_3 - t_2_1 - 2000.000000 u_2_1_3 > -1989.570000
t_1_1 - t_1_4 + 2000.000000 u_1_1_4 > 5.904800
t_1_4 - t_1_1 - 2000.000000 u_1_1_4 > -1994.399100
t_2_1 - t_2_4 + 2000.000000 u_2_1_4 > 11.287700
t_2_4 - t_2_1 - 2000.000000 u_2_1_4 > -1989.570000
t_1_5 - t_1_1 - 2000.000000 s_1_1 > -1987.693850
t_1_5 - t_2_1 - 2000.000000 s_2_1 > -1976.159500
t_2_5 - t_1_1 - 2000.000000 s_1_1 > -1987.693850
t_2_5 - t_2_1 - 2000.000000 s_2_1 > -1976.159500
t_1_2 - t_1_1 + 2000.000000 u_1_2_1 > 5.600900
t_1_1 - t_1_2 - 2000.000000 u_1_2_1 > -1989.147800
t_2_2 - t_2_1 + 2000.000000 u_2_2_1 > 10.430000
t_2_1 - t_2_2 - 2000.000000 u_2_2_1 > -1981.527700
t_1_2 - t_1_3 + 2000.000000 u_1_2_3 > 3.774000
t_1_3 - t_1_2 - 2000.000000 u_1_2_3 > -1989.147800
t_2_2 - t_2_3 + 2000.000000 u_2_2_3 > 6.267600
t_2_3 - t_2_2 - 2000.000000 u_2_2_3 > -1981.527700
t_1_2 - t_1_4 + 2000.000000 u_1_2_4 > 5.904800
t_1_4 - t_1_2 - 2000.000000 u_1_2_4 > -1989.147800
t_2_2 - t_2_4 + 2000.000000 u_2_2_4 > 11.287700
t_2_4 - t_2_2 - 2000.000000 u_2_2_4 > -1981.527700
t_1_5 - t_1_2 - 2000.000000 s_1_2 > -1982.442550
t_1_5 - t_2_2 - 2000.000000 s_2_2 > -1968.117200
t_2_5 - t_1_2 - 2000.000000 s_1_2 > -1982.442550
t_2_5 - t_2_2 - 2000.000000 s_2_2 > -1968.117200
t_1_3 - t_1_1 + 2000.000000 u_1_3_1 > 5.600900
t_1_1 - t_1_3 - 2000.000000 u_1_3_1 > -1996.226000
t_2_3 - t_2_1 + 2000.000000 u_2_3_1 > 10.430000
t_2_1 - t_2_3 - 2000.000000 u_2_3_1 > -1993.732400
t_1_3 - t_1_2 + 2000.000000 u_1_3_2 > 10.852200
t_1_2 - t_1_3 - 2000.000000 u_1_3_2 > -1996.226000
t_2_3 - t_2_2 + 2000.000000 u_2_3_2 > 18.472300
t_2_2 - t_2_3 - 2000.000000 u_2_3_2 > -1993.732400
t_1_3 - t_1_4 + 2000.000000 u_1_3_4 > 5.904800
t_1_4 - t_1_3 - 2000.000000 u_1_3_4 > -1996.226000
t_2_3 - t_2_4 + 2000.000000 u_2_3_4 > 11.287700
t_2_4 - t_2_3 - 2000.000000 u_2_3_4 > -1993.732400
t_1_5 - t_1_3 - 2000.000000 s_1_3 > -1989.520750
t_1_5 - t_2_3 - 2000.000000 s_2_3 > -1980.321900
t_2_5 - t_1_3 - 2000.000000 s_1_3 > -1989.520750
t_2_5 - t_2_3 - 2000.000000 s_2_3 > -1980.321900
t_1_4 - t_1_1 + 2000.000000 u_1_4_1 > 5.600900
t_1_1 - t_1_4 - 2000.000000 u_1_4_1 > -1994.095200
t_2_4 - t_2_1 + 2000.000000 u_2_4_1 > 10.430000
t_2_1 - t_2_4 - 2000.000000 u_2_4_1 > -1988.712300
t_1_4 - t_1_2 + 2000.000000 u_1_4_2 > 10.852200
t_1_2 - t_1_4 - 2000.000000 u_1_4_2 > -1994.095200
t_2_4 - t_2_2 + 2000.000000 u_2_4_2 > 18.472300
t_2_2 - t_2_4 - 2000.000000 u_2_4_2 > -1988.712300
t_1_4 - t_1_3 + 2000.000000 u_1_4_3 > 3.774000
t_1_3 - t_1_4 - 2000.000000 u_1_4_3 > -1994.095200
t_2_4 - t_2_3 + 2000.000000 u_2_4_3 > 6.267600
t_2_3 - t_2_4 - 2000.000000 u_2_4_3 > -1988.712300
t_1_5 - t_1_4 - 2000.000000 s_1_4 > -1987.389950
t_1_5 - t_2_4 - 2000.000000 s_2_4 > -1975.301800
t_2_5 - t_1_4 - 2000.000000 s_1_4 > -1987.389950
t_2_5 - t_2_4 - 2000.000000 s_2_4 > -1975.301800
t_1_5 - t_1_1 - 2000.000000 s_1_1 > -1987.693850
t_1_5 - t_2_1 - 2000.000000 s_2_1 > -1976.159500
t_2_5 - t_1_1 - 2000.000000 s_1_1 > -1987.693850
t_2_5 - t_2_1 - 2000.000000 s_2_1 > -1976.159500
t_1_5 - t_1_2 - 2000.000000 s_1_2 > -1982.442550
t_1_5 - t_2_2 - 2000.000000 s_2_2 > -1968.117200
t_2_5 - t_1_2 - 2000.000000 s_1_2 > -1982.442550
t_2_5 - t_2_2 - 2000.000000 s_2_2 > -1968.117200
t_1_5 - t_1_3 - 2000.000000 s_1_3 > -1989.520750
t_1_5 - t_2_3 - 2000.000000 s_2_3 > -1980.321900
t_2_5 - t_1_3 - 2000.000000 s_1_3 > -1989.520750
t_2_5 - t_2_3 - 2000.000000 s_2_3 > -1980.321900
t_1_5 - t_1_4 - 2000.000000 s_1_4 > -1987.389950
t_1_5 - t_2_4 - 2000.000000 s_2_4 > -1975.301800
t_2_5 - t_1_4 - 2000.000000 s_1_4 > -1987.389950
t_2_5 - t_2_4 - 2000.000000 s_2_4 > -1975.301800
Binary
s_1_1
s_2_1
s_1_2
s_2_2
s_1_3
s_2_3
s_1_4
s_2_4
s_1_5
s_2_5
u_1_1_2
u_2_1_2
u_1_1_3
u_2_1_3
u_1_1_4
u_2_1_4
u_1_2_1
u_2_2_1
u_1_2_3
u_2_2_3
u_1_2_4
u_2_2_4
u_1_3_1
u_2_3_1
u_1_3_2
u_2_3_2
u_1_3_4
u_2_3_4
u_1_4_1
u_2_4_1
u_1_4_2
u_2_4_2
u_1_4_3
u_2_4_3

End
